NAME : berlin52.tsp
TYPE : TOUR
DIMENSION : 52
TOUR_LENGTH : 8054.447099705729
TOUR_SECTION
1
49
32
45
19
41
8
9
10
43
33
51
11
52
14
13
47
26
27
28
12
4
25
46
48
24
5
6
15
38
37
40
39
36
35
34
44
16
29
50
20
23
22
18
31
21
30
2
7
42
17
3
-1
